[VALIDATOR STDOUT]
Checking plan: /home/jfan5/Safety-gen/runs/benchmark/optic/ferry_20260129_162355/ferry/optic_results/ferry-l29-c15-s29001.plan
Plan executed successfully - checking goal
Plan valid
Final value: 67 

Successful plans:
Value: 67
 /home/jfan5/Safety-gen/runs/benchmark/optic/ferry_20260129_162355/ferry/optic_results/ferry-l29-c15-s29001.plan 67
